5 2
6 2
7 2
8 1
9 3
10 5
11 4
12 5
13 3
14 1
15 5
5 3
6 6
7 2
8 3
9 5
10 3
11 5
12 2
13 6
14 5
15 5
5 6
6 7
7 6
8 7
9 7
10 6
11 6
12 4
13 6
14 5
15 6
5 5
6 8
7 8
8 7
9 8
10 8
11 8
12 6
13 5
14 4
15 5
5 7
6 8
7 7
8 6
9 9
10 7
11 9
12 7
13 9
14 8
15 5
5 10
6 9
7 6
8 6
9 8
10 7
11 9
12 8
13 9
14 9
15 10
5 8
6 11
7 11
8 10
9 8
10 11
11 11
12 8
13 10
14 11
15 10
5 12
6 8
7 10
8 11
9 12
10 11
11 8
12 9
13 8
14 10
15 11
5 12
6 12
7 10
8 13
9 9
10 13
11 9
12 11
13 9
14 12
15 12
5 14
6 13
7 12
8 12
9 11
10 12
11 12
12 13
13 14
14 12
15 10
5 12
6 12
7 13
8 11
9 12
10 11
11 14
12 11
13 12
14 13
15 15
5 13
6 16
7 15
8 13
9 16
10 12
11 15
12 16
13 13
